r = [
0,48,55,7,37,40,44,31,48,65,27,0
];
p = [
0,5,14,27,9,9,27,2,29,18,27,0
];
e = [
0,4,3,3,18,9,13,5,19,11,17,0
];
d = [
0,91,158,63,92,133,116,149,138,151,79,165
];
d_bar = [
0,94,165,77,97,138,130,150,153,160,93,165
];
w = [
0,1.333333333,0.428571429,0.214285714,3.6,1.8,0.928571429,5,1.266666667,1.222222222,1.214285714,0
];
